# Objective value = 3.0228492676041458e+02
x[0] 0
x[1] 0
x[2] 1
x[3] 0
x[4] 1
x[5] 0
x[6] 0
x[7] 1
x[8] 0
x[9] 1
x[10] 0
x[11] 1
x[12] 0
x[13] 1
x[14] 1
x[15] 1
x[16] 1
x[17] 1
x[18] 0
x[19] 1
x[20] 0
x[21] 0
x[22] 1
x[23] 1
x[24] 1
x[25] 0
x[26] 1
x[27] 0
x[28] 1
x[29] 1
x[30] 0
x[31] 1
x[32] 1
x[33] 0
x[34] 0
x[35] 1
x[36] 0
x[37] 1
x[38] 0
x[39] 1
x[40] 1
x[41] 1
x[42] 0
x[43] 0
x[44] 0
x[45] 1
x[46] 1
x[47] 1
x[48] 0
x[49] 0
x[50] 0
x[51] 0
x[52] 1
x[53] 1
x[54] 1
x[55] 0
x[56] 0
x[57] 0
x[58] 0
x[59] 0
x[60] 1
x[61] 0
x[62] 0
x[63] 1
x[64] 1
x[65] 1
x[66] 0
x[67] 0
x[68] 0
x[69] 0
x[70] 1
x[71] 0
x[72] 0
x[73] 1
x[74] 0
x[75] 1
x[76] 1
x[77] 0
x[78] 1
x[79] 0
x[80] 0
x[81] 1
x[82] 1
x[83] 1
x[84] 1
x[85] 1
x[86] 1
x[87] 0
x[88] 1
x[89] 0
x[90] 1
x[91] 1
x[92] 0
x[93] 1
x[94] 1
x[95] 1
x[96] 0
x[97] 0
x[98] 0
x[99] 0
x[100] 0
x[101] 0
x[102] 1
x[103] 0
x[104] 1
x[105] 0
x[106] 1
x[107] 1
x[108] 0
x[109] 0
x[110] 0
x[111] 0
x[112] 0
x[113] 1
x[114] 1
x[115] 1
x[116] 1
x[117] 1
x[118] 1
x[119] 0
x[120] 0
x[121] 1
x[122] 1
x[123] 0
x[124] 0
x[125] 1
x[126] 1
x[127] 1
x[128] 1
x[129] 1
x[130] 0
x[131] 1
x[132] 0
x[133] 0
x[134] 1
x[135] 0
x[136] 0
x[137] 1
x[138] 1
x[139] 1
x[140] 0
x[141] 0
x[142] 1
x[143] 1
x[144] 1
x[145] 0
x[146] 1
x[147] 0
x[148] 0
x[149] 0
x[150] 1
x[151] 0
x[152] 0
x[153] 1
x[154] 0
x[155] 0
x[156] 1
x[157] 1
x[158] 1
x[159] 0
x[160] 0
x[161] 0
x[162] 0
x[163] 0
x[164] 0
x[165] 1
x[166] 1
x[167] 0
x[168] 0
x[169] 0
x[170] 0
x[171] 1
x[172] 0
x[173] 1
x[174] 1
x[175] 0
x[176] 0
x[177] 0
x[178] 1
x[179] 1
x[180] 0
x[181] 1
x[182] 0
x[183] 1
x[184] 0
x[185] 1
x[186] 0
x[187] 1
x[188] 1
x[189] 0
x[190] 0
x[191] 0
x[192] 0
x[193] 0
x[194] 1
x[195] 1
x[196] 0
x[197] 1
x[198] 0
x[199] 0
x[200] 1
x[201] 1
x[202] 0
x[203] 0
x[204] 0
x[205] 0
x[206] 0
x[207] 1
x[208] 0
x[209] 1
x[210] 0
x[211] 1
x[212] 0
x[213] 1
x[214] 0
x[215] 1
x[216] 1
x[217] 0
x[218] 0
x[219] 0
x[220] 0
x[221] 1
x[222] 0
x[223] 0
x[224] 0
x[225] 0
x[226] 0
x[227] 0
x[228] 1
x[229] 1
x[230] 0
x[231] 0
x[232] 0
x[233] 0
x[234] 0
x[235] 1
x[236] 0
x[237] 1
x[238] 1
x[239] 1
x[240] 1
x[241] 0
x[242] 0
x[243] 1
x[244] 0
x[245] 0
x[246] 1
x[247] 0
x[248] 1
x[249] 1
x[250] 1
x[251] 0
x[252] 0
x[253] 0
x[254] 1
x[255] 0
x[256] 1
x[257] 1
x[258] 0
x[259] 0
x[260] 0
x[261] 1
x[262] 0
x[263] 0
x[264] 0
x[265] 1
x[266] 0
x[267] 1
x[268] 1
x[269] 1
x[270] 0
x[271] 1
x[272] 1
x[273] 0
x[274] 1
x[275] 0
x[276] 0
x[277] 0
x[278] 1
x[279] 0
x[280] 0
x[281] 1
x[282] 0
x[283] 0
x[284] 1
x[285] 0
x[286] 0
x[287] 0
x[288] 1
x[289] 0
x[290] 0
x[291] 0
x[292] 1
x[293] 0
x[294] 1
x[295] 1
x[296] 0
x[297] 0
x[298] 0
x[299] 1
x[300] 1
x[301] 1
x[302] 1
x[303] 0
x[304] 1
x[305] 1
x[306] 0
x[307] 1
x[308] 1
x[309] 0
x[310] 1
x[311] 0
x[312] 0
x[313] 1
x[314] 1
x[315] 1
x[316] 0
x[317] 1
x[318] 0
x[319] 0
x[320] 1
x[321] 0
x[322] 1
x[323] 0
x[324] 1
x[325] 0
x[326] 1
x[327] 1
x[328] 0
x[329] 1
x[330] 0
x[331] 1
x[332] 1
x[333] 0
x[334] 1
x[335] 0
x[336] 0
x[337] 0
x[338] 0
x[339] 1
x[340] 1
x[341] 0
x[342] 0
x[343] 0
x[344] 1
x[345] 0
x[346] 0
x[347] 0
x[348] 1
x[349] 0
x[350] 1
x[351] 0
x[352] 0
x[353] 1
x[354] 1
x[355] 0
x[356] 0
x[357] 0
x[358] 0
x[359] 1
x[360] 1
x[361] 1
x[362] 1
x[363] 0
x[364] 1
x[365] 1
x[366] 1
x[367] 1
x[368] 1
x[369] 1
x[370] 1
x[371] 1
x[372] 1
x[373] 1
x[374] 0
x[375] 1
x[376] 1
x[377] 1
x[378] 0
x[379] 1
x[380] 0
x[381] 1
x[382] 0
x[383] 0
x[384] 1
x[385] 0
x[386] 0
x[387] 1
x[388] 0
x[389] 1
x[390] 1
x[391] 0
x[392] 0
x[393] 1
x[394] 0
x[395] 1
x[396] 1
x[397] 0
x[398] 0
x[399] 0
x[400] 1
x[401] 0
x[402] 1
x[403] 1
x[404] 1
x[405] 1
x[406] 0
x[407] 1
x[408] 1
x[409] 0
x[410] 1
x[411] 0
x[412] 1
x[413] 0
x[414] 0
x[415] 0
x[416] 1
x[417] 1
x[418] 0
x[419] 0
x[420] 1
x[421] 0
x[422] 0
x[423] 1
x[424] 0
x[425] 0
x[426] 0
x[427] 1
x[428] 0
x[429] 0
x[430] 0
x[431] 1
x[432] 1
x[433] 0
x[434] 1
x[435] 1
x[436] 0
x[437] 1
x[438] 0
x[439] 0
x[440] 0
x[441] 0
x[442] 1
x[443] 1
x[444] 0
x[445] 0
x[446] 1
x[447] 1
x[448] 0
x[449] 0
x[450] 0
x[451] 0
x[452] 1
x[453] 0
x[454] 0
x[455] 1
x[456] 1
x[457] 1
x[458] 1
x[459] 0
x[460] 1
x[461] 0
x[462] 1
x[463] 1
x[464] 0
x[465] 1
x[466] 0
x[467] 0
x[468] 1
x[469] 1
x[470] 1
x[471] 0
x[472] 1
x[473] 0
x[474] 0
x[475] 1
x[476] 1
x[477] 1
x[478] 0
x[479] 1
x[480] 0
x[481] 0
x[482] 0
x[483] 0
x[484] 1
x[485] 1
x[486] 0
x[487] 0
x[488] 1
x[489] 1
x[490] 0
x[491] 0
x[492] 1
x[493] 0
x[494] 0
x[495] 0
x[496] 1
x[497] 0
x[498] 0
x[499] 0
x[500] 0
x[501] 1
x[502] 1
x[503] 0
x[504] 0
x[505] 0
x[506] 1
x[507] 1
x[508] 1
x[509] 0
x[510] 1
x[511] 1
x[512] 1
x[513] 0
x[514] 1
x[515] 0
x[516] 0
x[517] 1
x[518] 0
x[519] 0
x[520] 1
x[521] 0
x[522] 0
x[523] 1
x[524] 0
x[525] 0
x[526] 1
x[527] 1
x[528] 1
x[529] 1
x[530] 0
x[531] 1
x[532] 1
x[533] 0
x[534] 0
x[535] 0
x[536] 1
x[537] 0
x[538] 1
x[539] 0
x[540] 0
x[541] 1
x[542] 1
x[543] 1
x[544] 0
x[545] 0
x[546] 0
x[547] 1
x[548] 1
x[549] 1
x[550] 1
x[551] 0
x[552] 0
x[553] 1
x[554] 1
x[555] 1
x[556] 1
x[557] 1
x[558] 0
x[559] 1
x[560] 0
x[561] 1
x[562] 0
x[563] 1
x[564] 1
x[565] 0
x[566] 0
x[567] 1
x[568] 0
x[569] 0
x[570] 1
x[571] 0
x[572] 1
x[573] 1
x[574] 1
x[575] 0
x[576] 1
x[577] 0
x[578] 0
x[579] 1
x[580] 0
x[581] 0
x[582] 0
x[583] 1
x[584] 1
x[585] 1
x[586] 0
x[587] 1
x[588] 1
x[589] 1
x[590] 1
x[591] 1
x[592] 0
x[593] 0
x[594] 0
x[595] 0
x[596] 1
x[597] 1
x[598] 1
x[599] 1
x[600] 1
x[601] 1
x[602] 0
x[603] 0
x[604] 1
x[605] 1
x[606] 1
x[607] 1
x[608] 1
x[609] 1
x[610] 1
x[611] 1
x[612] 1
x[613] 0
x[614] 0
x[615] 0
x[616] 0
x[617] 1
x[618] 0
x[619] 1
x[620] 1
x[621] 1
x[622] 0
x[623] 1
x[624] 0
x[625] 0
x[626] 1
x[627] 0
x[628] 1
x[629] 0
x[630] 0
x[631] 1
x[632] 1
x[633] 0
x[634] 0
x[635] 0
x[636] 0
x[637] 0
x[638] 0
x[639] 1
x[640] 1
x[641] 0
x[642] 1
x[643] 0
x[644] 1
x[645] 0
x[646] 1
x[647] 0
x[648] 1
x[649] 1
x[650] 1
x[651] 0
x[652] 0
x[653] 1
x[654] 1
x[655] 1
x[656] 0
x[657] 0
x[658] 1
x[659] 1
x[660] 0
x[661] 0
x[662] 1
x[663] 0
x[664] 0
x[665] 0
x[666] 1
x[667] 0
x[668] 1
x[669] 0
x[670] 1
x[671] 1
x[672] 0
x[673] 1
x[674] 0
x[675] 0
x[676] 1
x[677] 1
x[678] 1
x[679] 0
x[680] 1
x[681] 0
x[682] 1
x[683] 0
x[684] 1
x[685] 0
x[686] 1
x[687] 0
x[688] 1
x[689] 0
x[690] 1
x[691] 1
x[692] 1
x[693] 1
x[694] 1
x[695] 1
x[696] 0
x[697] 0
x[698] 0
x[699] 1
x[700] 0
x[701] 0
x[702] 0
x[703] 1
x[704] 0
x[705] 1
x[706] 1
x[707] 0
x[708] 1
x[709] 0
x[710] 1
x[711] 1
x[712] 0
x[713] 1
x[714] 1
x[715] 0
x[716] 0
x[717] 1
x[718] 0
x[719] 0
x[720] 0
x[721] 1
x[722] 1
x[723] 0
x[724] 0
x[725] 1
x[726] 1
x[727] 1
x[728] 0
x[729] 0
x[730] 1
x[731] 1
x[732] 1
x[733] 1
x[734] 1
x[735] 1
x[736] 1
x[737] 1
x[738] 0
x[739] 1
x[740] 1
x[741] 0
x[742] 1
x[743] 0
x[744] 1
x[745] 1
x[746] 0
x[747] 0
x[748] 0
x[749] 1
x[750] 1
x[751] 0
x[752] 0
x[753] 0
x[754] 0
x[755] 0
x[756] 0
x[757] 0
x[758] 0
x[759] 0
x[760] 0
x[761] 0
x[762] 0
x[763] 1
x[764] 0
x[765] 0
x[766] 0
x[767] 0
x[768] 1
x[769] 0
x[770] 0
x[771] 1
x[772] 0
x[773] 1
x[774] 1
x[775] 1
x[776] 1
x[777] 1
x[778] 0
x[779] 1
x[780] 1
x[781] 1
x[782] 0
x[783] 0
x[784] 1
x[785] 1
x[786] 0
x[787] 0
x[788] 0
x[789] 1
x[790] 0
x[791] 0
x[792] 0
x[793] 0
x[794] 1
x[795] 0
x[796] 0
x[797] 0
x[798] 1
x[799] 0
x[800] 1
x[801] 1
x[802] 1
x[803] 0
x[804] 1
x[805] 1
x[806] 0
x[807] 1
x[808] 1
x[809] 1
x[810] 0
x[811] 0
x[812] 0
x[813] 0
x[814] 0
x[815] 1
x[816] 0
x[817] 0
x[818] 0
x[819] 0
x[820] 0
x[821] 1
x[822] 1
x[823] 0
x[824] 0
x[825] 0
x[826] 0
x[827] 0
x[828] 1
x[829] 1
x[830] 0
x[831] 0
x[832] 0
x[833] 0
x[834] 1
x[835] 1
x[836] 1
x[837] 1
x[838] 1.0000003210122195e+00
x[839] 1
x[840] 0
x[841] 0
x[842] 1
x[843] 1
x[844] 0
x[845] 1
x[846] 0
x[847] 1
x[848] 0
x[849] 0
x[850] 0
x[851] 1
x[852] 0
x[853] 0
x[854] 0
x[855] 1
x[856] 1
x[857] 1
x[858] 0
x[859] 1
x[860] 0
x[861] 0
x[862] 1
x[863] 1
x[864] 1
x[865] 1
x[866] 0
x[867] 1
x[868] 0
x[869] 0
x[870] 1
x[871] 0
x[872] 0
x[873] 1
x[874] 1
x[875] 0
x[876] 1
x[877] 0
x[878] 0
x[879] 0
x[880] 1
x[881] 1
x[882] 1
x[883] 0
x[884] 0
x[885] 0
x[886] 0
x[887] 0
x[888] 0
x[889] 1
x[890] 0
x[891] 0
x[892] 1
x[893] 0
x[894] 0
x[895] 1
x[896] 1
x[897] 1
x[898] 1
x[899] 0
x[900] 0
x[901] 1
x[902] 1
x[903] 1
x[904] 0
x[905] 1
x[906] 0
x[907] 1
x[908] 1
x[909] 0
x[910] 1
x[911] 1
x[912] 0
x[913] 0
x[914] 0
x[915] 1
x[916] 1
x[917] 0
x[918] 0
x[919] 0
x[920] 0
x[921] 0
x[922] 1
x[923] 1
x[924] 0
x[925] 0
x[926] 0
x[927] 1
x[928] 0
x[929] 0
x[930] 1
x[931] 1
x[932] 0
x[933] 0
x[934] 0
x[935] 0
x[936] 1
x[937] 0
x[938] 1
x[939] 0
x[940] 1
x[941] 0
x[942] 0
x[943] 0
x[944] 0
x[945] 0
x[946] 1
x[947] 0
x[948] 0
x[949] 0
x[950] 1
x[951] 0
x[952] 0
x[953] 0
x[954] 0
x[955] 1
x[956] 0
x[957] 0
x[958] 0
x[959] 0
x[960] 1
x[961] 1
x[962] 1
x[963] 1
x[964] 0
x[965] 1
x[966] 0
x[967] 1
x[968] 1
x[969] 0
x[970] 0
x[971] 1
x[972] 0
x[973] 1
x[974] 0
x[975] 0
x[976] 1
x[977] 1
x[978] 1
x[979] 1
x[980] 0
x[981] 1
x[982] 0
x[983] 0
x[984] 1
x[985] 1
x[986] 1
x[987] 0
x[988] 1
x[989] 0
x[990] 1
x[991] 1
x[992] 1
x[993] 0
x[994] 1
x[995] 1
x[996] 0
x[997] 1
x[998] 0
x[999] 0
